(set-logic QF_S)
(declare-fun var0 () String)
(assert (RegexIn var0 (RegexConcat (RegexPlus (RegexPlus (RegexStar (RegexStar (RegexUnion (RegexPlus (RegexStar (Str2Reg "0"))) (RegexPlus (RegexPlus (Str2Reg "1")))))))) (RegexUnion (RegexStar (RegexPlus (RegexPlus (RegexUnion (RegexPlus (RegexUnion (Str2Reg "222") (Str2Reg "333"))) (RegexPlus (RegexPlus (Str2Reg "44"))))))) (RegexStar (RegexStar (RegexUnion (RegexPlus (RegexPlus (RegexUnion (Str2Reg "55") (Str2Reg "6")))) (RegexPlus (RegexStar (RegexPlus (Str2Reg "7")))))))))))
(assert (<= 15 (Length var0)))
(check-sat)